<instance format="XCSP3" type="CSP">
  <variables>
    <var id="x0"> 5 13 15 17 </var>
    <var id="x1"> 8 12 13 </var>
    <var id="x2"> 5 7 9 </var>
    <var id="x3"> 5 7 8 17 </var>
    <var id="x4"> 8 12 13 17 </var>
    <var id="x5"> 5 9 12 13 15 </var>
    <var id="x6"> 5 12 17 </var>
    <var id="x7"> 5 8 12 15 </var>
    <var id="x8"> 1 3 5 6 10 </var>
    <var id="x9"> 3 5 9 16 </var>
    <var id="x10"> 1 5 6 9 </var>
    <var id="x11"> 1 3 9 10 12 </var>
    <var id="x12"> 6 9 10 </var>
    <var id="x13"> 3 5 9 12 </var>
    <var id="x14"> 5 6 9 10 </var>
    <var id="x15"> 1 3 5 6 9 16 </var>
    <var id="x16"> 1 11 12 </var>
    <var id="x17"> 0 1 5 </var>
    <var id="x18"> 0 11 14 </var>
    <var id="x19"> 1 5 12 15 </var>
    <var id="x20"> 5 12 14 </var>
    <var id="x21"> 5 11 12 14 15 </var>
    <var id="x22"> 0 1 5 11 12 </var>
    <var id="x23"> 3 5 15 </var>
    <var id="x24"> 3 5 6 </var>
    <var id="x25"> 4 6 8 12 </var>
    <var id="x26"> 0 5 6 8 </var>
    <var id="x27"> 0 5 12 15 </var>
    <var id="x28"> 5 12 15 </var>
    <var id="x29"> 0 3 8 12 </var>
    <var id="x30"> 5 6 8 </var>
    <var id="x31"> 11 13 </var>
    <var id="x32"> 5 9 11 14 16 </var>
    <var id="x33"> 9 11 13 </var>
    <var id="x34"> 0 5 11 </var>
    <var id="x35"> 5 9 11 13 14 </var>
    <var id="x36"> 5 11 16 </var>
    <var id="x37"> 5 9 13 16 </var>
    <var id="x38"> 1 10 14 17 </var>
    <var id="x39"> 11 14 </var>
    <var id="x40"> 1 8 12 </var>
    <var id="x41"> 8 10..13 17 </var>
    <var id="x42"> 10 12..14 </var>
    <var id="x43"> 11..14 </var>
    <var id="x44"> 1 11 12 17 </var>
    <var id="x45"> 8 10 13 17 </var>
    <var id="x46"> 7 12 </var>
    <var id="x47"> 5 6 17 </var>
    <var id="x48"> 3 10..12 17 </var>
    <var id="x49"> 5 7 11 12 </var>
    <var as="x48" id="x50"/>
    <var id="x51"> 5 7 10 12 </var>
    <var id="x52"> 5..7 10 17 </var>
    <var id="x53"> 5 10..12 </var>
    <var id="x54"> 6 8 10 11 13 </var>
    <var id="x55"> 2 3 11 </var>
    <var id="x56"> 3 6 8 </var>
    <var id="x57"> 3 10 11 13 </var>
    <var id="x58"> 2 10 13 15 </var>
    <var id="x59"> 2 10 13 </var>
    <var id="x60"> 2 8 10 11 15 </var>
    <var id="x61"> 2 3 6 13 </var>
    <var id="x62"> 1 5 10 13 14 </var>
    <var id="x63"> 1 5 10 14 </var>
    <var id="x64"> 0 1 5 13 </var>
    <var id="x65"> 1 10 11 13 </var>
    <var id="x66"> 0 10 11 14 </var>
    <var id="x67"> 1 5 10 13 </var>
    <var id="x68"> 5 7 10 13 14 </var>
    <var id="x69"> 1 5 13 </var>
    <var id="x70"> 13 17 </var>
    <var id="x71"> 2 11 12 </var>
    <var id="x72"> 6 9 11 17 </var>
    <var id="x73"> 2 12 13 17 </var>
    <var id="x74"> 9 11..13 </var>
    <var id="x75"> 6 9 13 17 </var>
    <var id="x76"> 2 11 12 16 </var>
    <var id="x77"> 2 6 9 13 16 </var>
    <var id="x78"> 1 3 5 10 14 17 </var>
    <var id="x79"> 3 5 14 17 </var>
    <var id="x80"> 9 10 14 17 </var>
    <var id="x81"> 1 5 10 17 </var>
    <var id="x82"> 3 10 17 </var>
    <var id="x83"> 4 5 10 14 </var>
    <var id="x84"> 5 10 </var>
    <var id="x85"> 1 3 5 9 </var>
    <var id="x86"> 0 1 7 8 </var>
    <var id="x87"> 7 8 14 17 </var>
    <var id="x88"> 0 8 11 14 17 </var>
    <var id="x89"> 0 8 11 17 </var>
    <var id="x90"> 2 7 14 </var>
    <var id="x91"> 7 8 17 </var>
    <var id="x92"> 2 8 11 </var>
    <var id="x93"> 1 2 </var>
    <var id="x94"> 1 5 6 </var>
    <var id="x95"> 1 7 12 16 </var>
    <var id="x96"> 5..7 16 </var>
    <var id="x97"> 1 5 7 12 15 </var>
    <var id="x98"> 12 </var>
    <var id="x99"> 5 12 15 </var>
    <var id="x100"> 1 5 12 </var>
    <var id="x101"> 1 5 10 13 17 </var>
    <var id="x102"> 1 4 6 10 13 </var>
    <var id="x103"> 5 7 </var>
    <var id="x104"> 1 4 7 </var>
    <var id="x105"> 1 10 13 17 </var>
    <var id="x106"> 1 5 7 </var>
    <var id="x107"> 5..7 10 13 17 </var>
    <var id="x108"> 5 10 </var>
    <var id="x109"> 1 3 5 13 17 </var>
    <var id="x110"> 1 3 5 17 </var>
    <var id="x111"> 1 8 11 13 </var>
    <var id="x112"> 2 3 5 11 </var>
    <var id="x113"> 1 5 8 13 17 </var>
    <var id="x114"> 1 2 5 11 </var>
    <var id="x115"> 1 2 5 13 17 </var>
    <var id="x116"> 3 5 11 13 </var>
    <var id="x117"> 2 3 5 </var>
    <var id="x118"> 3 5 17 </var>
    <var id="x119"> 1 5 13 17 </var>
    <var id="x120"> 1 3 10 12 13 17 </var>
    <var id="x121"> 1 2 5 12 </var>
    <var id="x122"> 10 17 </var>
    <var id="x123"> 3 10 12 13 17 </var>
    <var id="x124"> 1 2 5 12 17 </var>
    <var id="x125"> 3 5 10 14 </var>
    <var id="x126"> 8 10 </var>
    <var id="x127"> 0 8 </var>
    <var id="x128"> 3 5 8 14 </var>
    <var id="x129"> 3 9 10 </var>
    <var id="x130"> 2 5 10 14 </var>
    <var id="x131"> 0 2 5 </var>
    <var id="x132"> 2 3 5 9 </var>
    <var id="x133"> 10 13 17 </var>
    <var id="x134"> 8 12 16 </var>
    <var id="x135"> 8 16 17 </var>
    <var id="x136"> 8 9 13 17 </var>
    <var id="x137"> 8..10 17 </var>
    <var id="x138"> 2 10 12 13 17 </var>
    <var id="x139"> 2 12 17 </var>
    <var id="x140"> 8..10 13 17 </var>
  </variables>
  <constraints>
    <group>
      <allDifferent> %... </allDifferent>
      <args> x0 x1 x2 x3 x4 x5 x6 x7 </args>
      <args> x8 x9 x10 x11 x12 x13 x14 x15 </args>
      <args> x16 x17 x18 x19 x20 x21 x22 </args>
      <args> x23 x24 x25 x26 x27 x28 x29 x30 </args>
      <args> x31 x32 x33 x34 x35 x36 x37 </args>
      <args> x38 x39 x40 x41 x42 x43 x44 x45 </args>
      <args> x46 x47 x48 x49 x50 x51 x52 x53 </args>
      <args> x54 x55 x56 x57 x58 x59 x60 x61 </args>
      <args> x62 x63 x64 x65 x66 x67 x68 x69 </args>
      <args> x70 x71 x72 x73 x74 x75 x76 x77 </args>
      <args> x78 x79 x80 x81 x82 x83 x84 x85 </args>
      <args> x86 x87 x88 x89 x90 x91 x92 x93 </args>
      <args> x94 x95 x96 x97 x98 x99 x100 </args>
      <args> x101 x102 x103 x104 x105 x106 x107 x108 </args>
      <args> x109 x110 x111 x112 x113 x114 x115 x116 </args>
      <args> x117 x118 x119 x120 x121 x122 x123 x124 </args>
      <args> x125 x126 x127 x128 x129 x130 x131 x132 </args>
      <args> x133 x134 x135 x136 x137 x138 x139 x140 </args>
      <args> x0 x23 x62 x70 x78 x101 x109 x133 </args>
      <args> x8 x24 x38 x63 x94 x110 x125 </args>
      <args> x1 x16 x25 x31 x54 x102 x111 x126 </args>
      <args> x2 x9 x32 x39 x55 x103 x112 x117 </args>
      <args> x40 x46 x86 x95 x104 x127 x134 </args>
      <args> x3 x56 x79 x87 x96 x118 x128 x135 </args>
      <args> x10 x17 x26 x47 x64 x113 x119 x136 </args>
      <args> x11 x33 x48 x57 x65 x105 x120 x129 </args>
      <args> x27 x34 x49 x71 x97 x106 x114 x121 </args>
      <args> x12 x18 x66 x72 x80 x88 x122 x137 </args>
      <args> x19 x28 x58 x67 x73 x81 x115 x138 </args>
      <args> x4 x29 x41 x50 x82 x89 x98 x123 </args>
      <args> x20 x42 x51 x59 x68 x83 x90 x130 </args>
      <args> x5 x13 x21 x35 x43 x74 x99 x116 </args>
      <args> x6 x22 x44 x100 x124 x131 x139 </args>
      <args> x14 x30 x45 x52 x75 x91 x107 x140 </args>
      <args> x7 x36 x53 x60 x76 x84 x92 x108 </args>
      <args> x15 x37 x61 x69 x77 x85 x93 x132 </args>
    </group>
  </constraints>
</instance>

